Problem:    Airplane_Landing_Problem
Rows:       15
Columns:    6
Non-zeros:  23
Status:     OPTIMAL
Objective:  z = 1.5 (MAXimum)

   No.   Row name   St   Activity     Lower bound   Upper bound    Marginal
------ ------------ -- ------------- ------------- ------------- -------------
     1 z            B            1.5                             
     2 con1         B              0                          -0 
     3 con2         B              0                          -0 
     4 con3         NU             0                          -0           0.5 
     5 con4         NU             0                          -0           0.5 
     6 con5         B              8                           9 
     7 con6         B            9.5                          10 
     8 con7         B             11                        11.5 
     9 con8         B           12.5                        12.5 
    10 con9         NU            14                          14           0.5 
    11 con10        NU            -8                          -8         < eps
    12 con11        NU          -9.5                        -9.5         < eps
    13 con12        NU           -11                         -11           0.5 
    14 con13        B          -12.5                         -12 
    15 con14        B            -14                         -13 

   No. Column name  St   Activity     Lower bound   Upper bound    Marginal
------ ------------ -- ------------- ------------- ------------- -------------
     1 gap          B            1.5             0               
     2 x1           B              8             0               
     3 x2           B            9.5             0               
     4 x3           B             11             0               
     5 x4           B           12.5             0               
     6 x5           B             14             0               

Karush-Kuhn-Tucker optimality conditions:

KKT.PE: max.abs.err = 0.00e+00 on row 0
        max.rel.err = 0.00e+00 on row 0
        High quality

KKT.PB: max.abs.err = 0.00e+00 on row 0
        max.rel.err = 0.00e+00 on row 0
        High quality

KKT.DE: max.abs.err = 0.00e+00 on column 0
        max.rel.err = 0.00e+00 on column 0
        High quality

KKT.DB: max.abs.err = 0.00e+00 on row 0
        max.rel.err = 0.00e+00 on row 0
        High quality

End of output
